c 223_4_checker.cnf
c
c field = 223
c formula set type = 4_checker
c
p cnf 5 14
436 
438 
440 
442 
-434 
437 
439 
441 
443 
-435 
436 
438 
440 
442 
-446 
437 
439 
441 
443 
-447 
438 
440 
442 
446 
-436 
439 
441 
443 
447 
-437 
438 
440 
442 
446 
-448 
439 
441 
443 
447 
-449 
440 
442 
446 
448 
-438 
441 
443 
447 
449 
-439 
324 
354 
384 
414 
-294 
325 
355 
385 
415 
-295 
316 
348 
380 
412 
-284 
317 
349 
381 
413 
-285 
